language ESSENCE' 1.0
$ minion Nodes: 10
$ minion TotalTime: 0.00164
$ Savile Row TotalTime: 0.397
letting valid_AsReln_RelationAsSet_SetExplicitVarSize_tuple2_tuple1 be [1, 2, 3, 1, 1, 1;int(1..6)]
letting valid_AsReln_RelationAsSet_SetExplicitVarSize_tuple2_tuple2 be [1, 1, 1, 1, 1, 1;int(1..6)]
letting valid_AsReln_RelationAsSet_SetExplicitVarSize_tuple1 be [true, true, true, false, false, false;int(1..6)]
